(set-logic QF_BV)
(declare-fun x0 () (_ BitVec 32))
(declare-fun x1 () Bool)
(declare-fun x2 () (_ BitVec 64))
(declare-fun x3 () Bool)
(declare-fun x4 () Bool)
(declare-fun x5 () Bool)
(declare-fun x6 () Bool)
(declare-fun x7 () Bool)
(declare-fun x8 () (_ BitVec 32))
(declare-fun x9 () (_ BitVec 64))
(declare-fun x10 () (_ BitVec 64))
(declare-fun x11 () (_ BitVec 32))
(assert x5)
(assert x1)
(assert x3)
(assert x6)
(assert x7)
(assert x4)
(assert (= x8 (bvurem x0 x11)))
(assert (= x2 ((_ sign_extend 32) x8)))
(assert (= x10 x2))
(assert (= x9 (bvadd x10 (_ bv0 64))))
(assert (= (_ bv0 64) (bvadd ((_ extract 63 0) (_ bv4 64)) x9)))
(check-sat)
(exit)
